mixintcount/benchmarks/random_v2l/8_8_398.in
32 10
#	x1	x2	x3	x4	x5	x6	x7	x8;		0 = Real; 1 = Integer
	1	1	1	1	1	1	1	1
1	-1	4	5	-10	0	1	7	-10	-396
1	-6	4	-1	3	6	10	-2	-7	-48
1	-1	5	-7	-10	-7	8	7	-5	-184
1	2	-10	-5	1	-1	9	-5	-3	-159
1	4	-6	-3	-5	-2	-10	4	-9	18
1	2	-3	8	6	4	0	7	5	-243
1	3	-1	8	1	9	8	6	-1	16
1	2	2	2	9	-5	6	-7	-1	-320
1	-9	-10	-10	5	2	-4	0	-4	94
1	10	-8	2	0	3	10	-2	-8	300
1	-7	8	-5	-2	0	7	8	-4	222
1	3	-1	-1	2	0	-1	3	-8	-35
1	7	3	-3	4	2	-3	-6	-8	-47
1	-7	-2	-10	-10	-1	6	-7	5	-45
1	-10	2	1	-10	-8	8	-3	5	-214
1	6	-5	-2	5	-9	-10	10	3	238
1	1	0	0	0	0	0	0	0	398
1	-1	0	0	0	0	0	0	0	398
1	0	1	0	0	0	0	0	0	398
1	0	-1	0	0	0	0	0	0	398
1	0	0	1	0	0	0	0	0	398
1	0	0	-1	0	0	0	0	0	398
1	0	0	0	1	0	0	0	0	398
1	0	0	0	-1	0	0	0	0	398
1	0	0	0	0	1	0	0	0	398
1	0	0	0	0	-1	0	0	0	398
1	0	0	0	0	0	1	0	0	398
1	0	0	0	0	0	-1	0	0	398
1	0	0	0	0	0	0	1	0	398
1	0	0	0	0	0	0	-1	0	398
1	0	0	0	0	0	0	0	1	398
1	0	0	0	0	0	0	0	-1	398
